c description: Random 2-CNF over 15 variables and 80 clauses
c generator: CNFgen (0.9.0)
c copyright: (C) 2012-2020 Massimo Lauria <massimo.lauria@uniroma1.it>
c url: https://massimolauria.net/cnfgen
c
p cnf 15 80
-4 7 0
2 4 0
8 9 0
1 -14 0
1 -4 0
4 9 0
3 12 0
2 12 0
-2 12 0
-4 -10 0
-6 13 0
-1 15 0
-7 13 0
7 12 0
-5 -6 0
10 15 0
-9 -14 0
1 -9 0
3 11 0
13 -14 0
-5 7 0
-7 12 0
-9 15 0
-9 -15 0
-5 -14 0
3 8 0
1 -15 0
-12 -15 0
2 -6 0
-7 -8 0
1 13 0
-2 -5 0
1 -12 0
-2 7 0
-1 -6 0
-1 13 0
1 8 0
-1 5 0
1 -2 0
-1 11 0
7 -9 0
-8 11 0
-1 -8 0
-6 -14 0
7 11 0
4 5 0
4 -5 0
8 13 0
3 -5 0
-11 -13 0
10 14 0
1 -10 0
2 -12 0
11 -14 0
11 12 0
10 13 0
8 -15 0
5 -12 0
10 -15 0
-10 15 0
6 8 0
-7 -12 0
-5 -7 0
1 -3 0
2 -3 0
-3 -10 0
9 -13 0
-3 8 0
-12 13 0
12 -14 0
-5 6 0
1 -5 0
-2 14 0
5 15 0
3 -8 0
7 9 0
-2 -13 0
5 -6 0
6 -7 0
2 15 0